c
c start with comments
c
c
p cnf 40 220
10 11 12 13 0
20 21 22 23 0
30 31 32 33 0
40 41 42 43 0
50 51 52 53 0
60 61 62 63 0
70 71 72 73 0
80 81 82 83 0
90 91 92 93 0
100 101 102 103 0
-10 -11 0
-10 -12 0
-10 -13 0
-11 -12 0
-11 -13 0
-12 -13 0
-20 -21 0
-20 -22 0
-20 -23 0
-21 -22 0
-21 -23 0
-22 -23 0
-30 -31 0
-30 -32 0
-30 -33 0
-31 -32 0
-31 -33 0
-32 -33 0
-40 -41 0
-40 -42 0
-40 -43 0
-41 -42 0
-41 -43 0
-42 -43 0
-50 -51 0
-50 -52 0
-50 -53 0
-51 -52 0
-51 -53 0
-52 -53 0
-60 -61 0
-60 -62 0
-60 -63 0
-61 -62 0
-61 -63 0
-62 -63 0
-70 -71 0
-70 -72 0
-70 -73 0
-71 -72 0
-71 -73 0
-72 -73 0
-80 -81 0
-80 -82 0
-80 -83 0
-81 -82 0
-81 -83 0
-82 -83 0
-90 -91 0
-90 -92 0
-90 -93 0
-91 -92 0
-91 -93 0
-92 -93 0
-100 -101 0
-100 -102 0
-100 -103 0
-101 -102 0
-101 -103 0
-102 -103 0
-10 -20 0
-10 -30 0
-10 -40 0
-10 -50 0
-10 -60 0
-10 -70 0
-10 -80 0
-10 -90 0
-10 -100 0
-20 -10 0
-20 -30 0
-20 -40 0
-20 -50 0
-20 -60 0
-20 -70 0
-20 -80 0
-20 -90 0
-20 -100 0
-30 -10 0
-30 -20 0
-30 -40 0
-30 -50 0
-30 -60 0
-30 -70 0
-30 -80 0
-30 -90 0
-30 -100 0
-40 -10 0
-40 -20 0
-40 -30 0
-40 -50 0
-40 -60 0
-40 -70 0
-40 -80 0
-40 -90 0
-40 -100 0
-50 -10 0
-50 -20 0
-50 -30 0
-50 -40 0
-50 -60 0
-50 -70 0
-50 -80 0
-50 -90 0
-50 -100 0
-60 -10 0
-60 -20 0
-60 -30 0
-60 -40 0
-60 -50 0
-60 -70 0
-60 -80 0
-60 -90 0
-60 -100 0
-70 -10 0
-70 -20 0
-70 -30 0
-70 -40 0
-70 -50 0
-70 -60 0
-70 -80 0
-70 -90 0
-70 -100 0
-80 -10 0
-80 -20 0
-80 -30 0
-80 -40 0
-80 -50 0
-80 -60 0
-80 -70 0
-80 -90 0
-80 -100 0
-90 -10 0
-90 -20 0
-90 -30 0
-90 -40 0
-90 -50 0
-90 -60 0
-90 -70 0
-90 -80 0
-90 -100 0
-100 -10 0
-100 -20 0
-100 -30 0
-100 -40 0
-100 -50 0
-100 -60 0
-100 -70 0
-100 -80 0
-100 -90 0
10 20 30 40 50 60 70 80 90 100 0
11 21 31 41 51 61 71 81 91 101 0
12 22 32 42 52 62 72 82 92 102 0
13 23 33 43 53 63 73 83 93 103 0
11 20 12 21 13 22 0
11 100 12 101 13 102 0
21 10 22 11 23 12 0
21 30 22 31 23 32 0
31 20 32 21 33 22 0
31 40 32 41 33 42 0
41 30 42 31 43 32 0
41 50 42 51 43 52 0
51 40 52 41 53 42 0
51 60 52 61 53 62 0
61 50 62 51 63 52 0
61 70 62 71 63 72 0
71 60 72 61 73 62 0
71 80 72 81 73 82 0
81 70 82 71 83 72 0
81 90 82 91 83 92 0
91 80 92 81 93 82 0
91 100 92 101 93 102 0
101 10 102 11 103 12 0
101 90 102 91 103 92 0
-11 20 -12 21 -13 22 0
-11 100 -12 101 -13 102 0
-21 10 -22 11 -23 12 0
-21 30 -22 31 -23 32 0
-31 20 -32 21 -33 22 0
-31 40 -32 41 -33 42 0
-41 30 -42 31 -43 32 0
-41 50 -42 51 -43 52 0
-51 40 -52 41 -53 42 0
-51 60 -52 61 -53 62 0
-61 50 -62 51 -63 52 0
-61 70 -62 71 -63 72 0
-71 60 -72 61 -73 62 0
-71 80 -72 81 -73 82 0
-81 70 -82 71 -83 72 0
-81 90 -82 91 -83 92 0
-91 80 -92 81 -93 82 0
-91 100 -92 101 -93 102 0
-101 10 -102 11 -103 12 0
-101 90 -102 91 -103 92 0
11 -20 12 -21 13 -22 0
11 -100 12 -101 13 -102 0
21 -10 22 -11 23 -12 0
21 -30 22 -31 23 -32 0
31 -20 32 -21 33 -22 0
31 -40 32 -41 33 -42 0
41 -30 42 -31 43 -32 0
41 -50 42 -51 43 -52 0
51 -40 52 -41 53 -42 0
51 -60 52 -61 53 -62 0
61 -50 62 -51 63 -52 0
61 -70 62 -71 63 -72 0
71 -60 72 -61 73 -62 0
71 -80 72 -81 73 -82 0
81 -70 82 -71 83 -72 0
81 -90 82 -91 83 -92 0
91 -80 92 -81 93 -82 0
91 -100 92 -101 93 -102 0
101 -10 102 -11 103 -12 0
101 -90 102 -91 103 -92 0
-11 -20 -100 -12 -21 -101 -13 -22 -102 0
-11 -100 -20 -12 -101 -21 -13 -102 -22 0
-21 -10 -30 -22 -11 -31 -23 -12 -32 0
-21 -30 -10 -22 -31 -11 -23 -32 -12 0
-31 -20 -40 -32 -21 -41 -33 -22 -42 0
-31 -40 -20 -32 -41 -21 -33 -42 -22 0
-41 -30 -50 -42 -31 -51 -43 -32 -52 0
-41 -50 -30 -42 -51 -31 -43 -52 -32 0
-51 -40 -60 -52 -41 -61 -53 -42 -62 0
-51 -60 -40 -52 -61 -41 -53 -62 -42 0
-61 -50 -70 -62 -51 -71 -63 -52 -72 0
-61 -70 -50 -62 -71 -51 -63 -72 -52 0
-71 -60 -80 -72 -61 -81 -73 -62 -82 0
-71 -80 -60 -72 -81 -61 -73 -82 -62 0
-81 -70 -90 -82 -71 -91 -83 -72 -92 0
-81 -90 -70 -82 -91 -71 -83 -92 -72 0
-91 -80 -100 -92 -81 -101 -93 -82 -102 0
-91 -100 -80 -92 -101 -81 -93 -102 -82 0
-101 -10 -90 -102 -11 -91 -103 -12 -92 0
-101 -90 -10 -102 -91 -11 -103 -92 -12 0
